2025-03-05 22:20:36,983 - INFO - Set parameter WLSAccessID
2025-03-05 22:20:36,983 - INFO - Set parameter WLSSecret
2025-03-05 22:20:36,983 - INFO - Set parameter LicenseID to value 2628134
2025-03-05 22:20:37,220 - INFO - Academic license 2628134 - for non-commercial use only - registered to bs___@uw.edu
2025-03-05 22:20:37,220 - INFO - Initialization complete
2025-03-05 22:20:47,090 - INFO - Variables created successfully
2025-03-05 22:22:02,470 - INFO - Constraints added successfully
2025-03-05 22:22:02,508 - INFO - Objective function with soft constraints set successfully
2025-03-05 22:22:03,117 - INFO - System has 373.7 GB of RAM available
2025-03-05 22:22:03,117 - INFO - Set parameter MemLimit to value 344064
2025-03-05 22:22:03,117 - INFO - Set Gurobi memory limit to 336 GB
2025-03-05 22:22:03,118 - INFO - Set parameter MIPGap to value 0.1
2025-03-05 22:22:03,118 - INFO - Set parameter TimeLimit to value 7200
2025-03-05 22:22:03,118 - INFO - Set parameter MIPFocus to value 1
2025-03-05 22:22:03,118 - INFO - Set parameter Presolve to value 2
2025-03-05 22:22:03,118 - INFO - Set parameter NodefileStart to value 0.95
2025-03-05 22:22:03,118 - INFO - Set parameter NodefileDir to value "/tmp/gurobi_nodefiles"
2025-03-05 22:22:03,118 - INFO - Using node file directory: /tmp/gurobi_nodefiles
2025-03-05 22:22:03,118 - INFO - Set parameter NodeMethod to value 1
2025-03-05 22:22:03,118 - INFO - Set parameter PoolSearchMode to value 2
2025-03-05 22:22:03,118 - INFO - Set parameter RINS to value 10
2025-03-05 22:22:03,119 - INFO - Set parameter Threads to value 46
2025-03-05 22:22:03,119 - INFO - Using 46 threads out of 48 available cores
2025-03-05 22:22:03,120 - INFO - Generating initial solution using advanced greedy algorithm...
2025-03-05 22:22:32,474 - INFO - Greedy algorithm generated initial values for: 7696 x vars, 411 z vars, 7696 y vars
2025-03-05 22:22:32,522 - INFO - Initial solution: 7696/1600 students assigned, 411/411 sections used
2025-03-05 22:22:32,522 - INFO - Starting optimization - accepting solutions within 10% of optimal
2025-03-05 22:22:32,522 - INFO - Maximum possible satisfied requests: 9600
2025-03-05 22:22:34,393 - INFO - Gurobi Optimizer version 10.0.3 build v10.0.3rc0 (linux64)
2025-03-05 22:22:34,393 - INFO - 
2025-03-05 22:22:34,393 - INFO - CPU model: Intel(R) Xeon(R) Platinum 8259CL CPU @ 2.50GHz, instruction set [SSE2|AVX|AVX2|AVX512]
2025-03-05 22:22:34,393 - INFO - Thread count: 24 physical cores, 48 logical processors, using up to 46 threads
2025-03-05 22:22:34,393 - INFO - 
2025-03-05 22:22:34,395 - INFO - Academic license 2628134 - for non-commercial use only - registered to bs___@uw.edu
2025-03-05 22:22:34,395 - INFO - Optimize a model with 6484825 rows, 2435835 columns and 17781723 nonzeros
2025-03-05 22:22:34,612 - INFO - Model fingerprint: 0xec1bb5f4
2025-03-05 22:22:34,615 - INFO - Variable types: 0 continuous, 2435835 integer (2435424 binary)
2025-03-05 22:22:34,652 - INFO - Coefficient statistics:
2025-03-05 22:22:34,652 - INFO -   Matrix range     [1e+00, 1e+00]
2025-03-05 22:22:34,653 - INFO -   Objective range  [1e+00, 1e+03]
2025-03-05 22:22:34,653 - INFO -   Bounds range     [1e+00, 1e+00]
2025-03-05 22:22:34,653 - INFO -   RHS range        [1e+00, 4e+01]
2025-03-05 22:22:34,653 - INFO - 
2025-03-05 22:22:34,703 - INFO - Warning: Completing partial solution with 2420032 unfixed non-continuous variables out of 2435835
2025-03-05 22:22:39,508 - INFO - Processing user MIP start: 0 nodes explored in subMIP, total elapsed time 5s
2025-03-05 22:22:43,029 - INFO - User MIP start produced solution with objective 7000 (8.64s)
2025-03-05 22:22:43,416 - INFO - Loaded user MIP start with objective 7000
2025-03-05 22:22:43,416 - INFO - Processed MIP start in 8.76 seconds (6.30 work units)
2025-03-05 22:22:43,416 - INFO - 
2025-03-05 22:22:49,083 - INFO - Presolve removed 849 rows and 6 columns (presolve time = 6s) ...
2025-03-05 22:22:53,438 - INFO - Presolve removed 849 rows and 6 columns (presolve time = 10s) ...
2025-03-05 22:22:58,429 - INFO - Presolve removed 849 rows and 6 columns (presolve time = 15s) ...
2025-03-05 22:23:03,432 - INFO - Presolve removed 849 rows and 6 columns (presolve time = 20s) ...
2025-03-05 22:23:08,437 - INFO - Presolve removed 849 rows and 6 columns (presolve time = 25s) ...
2025-03-05 22:23:13,435 - INFO - Presolve removed 849 rows and 6 columns (presolve time = 30s) ...
2025-03-05 22:23:20,125 - INFO - Presolve removed 849 rows and 6 columns (presolve time = 37s) ...
2025-03-05 22:23:23,434 - INFO - Presolve removed 849 rows and 6 columns (presolve time = 40s) ...
2025-03-05 22:23:28,460 - INFO - Presolve removed 849 rows and 6 columns (presolve time = 45s) ...
2025-03-05 22:23:33,430 - INFO - Presolve removed 849 rows and 6 columns (presolve time = 50s) ...
2025-03-05 22:23:38,461 - INFO - Presolve removed 849 rows and 6 columns (presolve time = 55s) ...
2025-03-05 22:23:43,450 - INFO - Presolve removed 849 rows and 6 columns (presolve time = 60s) ...
2025-03-05 22:23:48,470 - INFO - Presolve removed 849 rows and 6 columns (presolve time = 65s) ...
2025-03-05 22:23:53,450 - INFO - Presolve removed 849 rows and 6 columns (presolve time = 70s) ...
2025-03-05 22:23:58,430 - INFO - Presolve removed 849 rows and 6 columns (presolve time = 75s) ...
2025-03-05 22:24:03,440 - INFO - Presolve removed 849 rows and 6 columns (presolve time = 80s) ...
2025-03-05 22:24:08,431 - INFO - Presolve removed 849 rows and 6 columns (presolve time = 85s) ...
2025-03-05 22:24:13,466 - INFO - Presolve removed 849 rows and 6 columns (presolve time = 90s) ...
2025-03-05 22:24:18,445 - INFO - Presolve removed 849 rows and 6 columns (presolve time = 95s) ...
2025-03-05 22:24:23,471 - INFO - Presolve removed 849 rows and 6 columns (presolve time = 100s) ...
2025-03-05 22:24:28,461 - INFO - Presolve removed 849 rows and 6 columns (presolve time = 105s) ...
2025-03-05 22:24:33,430 - INFO - Presolve removed 849 rows and 6 columns (presolve time = 110s) ...
2025-03-05 22:24:38,470 - INFO - Presolve removed 849 rows and 6 columns (presolve time = 115s) ...
2025-03-05 22:24:43,452 - INFO - Presolve removed 849 rows and 6 columns (presolve time = 120s) ...
2025-03-05 22:24:48,431 - INFO - Presolve removed 849 rows and 6 columns (presolve time = 125s) ...
2025-03-05 22:24:53,443 - INFO - Presolve removed 849 rows and 6 columns (presolve time = 130s) ...
2025-03-05 22:24:58,428 - INFO - Presolve removed 849 rows and 6 columns (presolve time = 135s) ...
2025-03-05 22:25:03,452 - INFO - Presolve removed 849 rows and 6 columns (presolve time = 140s) ...
2025-03-05 22:25:08,478 - INFO - Presolve removed 849 rows and 6 columns (presolve time = 145s) ...
2025-03-05 22:25:13,451 - INFO - Presolve removed 849 rows and 6 columns (presolve time = 150s) ...
2025-03-05 22:25:18,440 - INFO - Presolve removed 849 rows and 6 columns (presolve time = 155s) ...
2025-03-05 22:25:23,462 - INFO - Presolve removed 849 rows and 6 columns (presolve time = 160s) ...
2025-03-05 22:25:28,438 - INFO - Presolve removed 849 rows and 6 columns (presolve time = 165s) ...
2025-03-05 22:25:33,474 - INFO - Presolve removed 849 rows and 6 columns (presolve time = 170s) ...
2025-03-05 22:25:38,436 - INFO - Presolve removed 849 rows and 6 columns (presolve time = 175s) ...
2025-03-05 22:25:43,428 - INFO - Presolve removed 849 rows and 6 columns (presolve time = 180s) ...
2025-03-05 22:25:48,454 - INFO - Presolve removed 849 rows and 6 columns (presolve time = 185s) ...
2025-03-05 22:25:53,436 - INFO - Presolve removed 849 rows and 6 columns (presolve time = 190s) ...
2025-03-05 22:25:58,463 - INFO - Presolve removed 849 rows and 6 columns (presolve time = 195s) ...
2025-03-05 22:26:03,437 - INFO - Presolve removed 849 rows and 6 columns (presolve time = 200s) ...
2025-03-05 22:26:08,464 - INFO - Presolve removed 849 rows and 6 columns (presolve time = 205s) ...
2025-03-05 22:26:13,437 - INFO - Presolve removed 849 rows and 6 columns (presolve time = 210s) ...
2025-03-05 22:26:18,459 - INFO - Presolve removed 849 rows and 6 columns (presolve time = 215s) ...
2025-03-05 22:26:23,436 - INFO - Presolve removed 849 rows and 6 columns (presolve time = 220s) ...
2025-03-05 22:26:28,460 - INFO - Presolve removed 849 rows and 6 columns (presolve time = 225s) ...
2025-03-05 22:26:33,462 - INFO - Presolve removed 849 rows and 6 columns (presolve time = 230s) ...
2025-03-05 22:26:38,438 - INFO - Presolve removed 849 rows and 6 columns (presolve time = 235s) ...
2025-03-05 22:26:43,464 - INFO - Presolve removed 849 rows and 6 columns (presolve time = 240s) ...
2025-03-05 22:26:48,447 - INFO - Presolve removed 849 rows and 6 columns (presolve time = 245s) ...
2025-03-05 22:26:53,427 - INFO - Presolve removed 849 rows and 6 columns (presolve time = 250s) ...
2025-03-05 22:26:58,446 - INFO - Presolve removed 849 rows and 6 columns (presolve time = 255s) ...
2025-03-05 22:27:03,471 - INFO - Presolve removed 849 rows and 6 columns (presolve time = 260s) ...
2025-03-05 22:27:08,453 - INFO - Presolve removed 849 rows and 6 columns (presolve time = 265s) ...
2025-03-05 22:27:13,456 - INFO - Presolve removed 849 rows and 6 columns (presolve time = 270s) ...
2025-03-05 22:27:18,437 - INFO - Presolve removed 849 rows and 6 columns (presolve time = 275s) ...
2025-03-05 22:27:23,470 - INFO - Presolve removed 849 rows and 6 columns (presolve time = 280s) ...
2025-03-05 22:27:28,440 - INFO - Presolve removed 849 rows and 6 columns (presolve time = 285s) ...
2025-03-05 22:27:33,458 - INFO - Presolve removed 849 rows and 6 columns (presolve time = 290s) ...
2025-03-05 22:27:38,480 - INFO - Presolve removed 849 rows and 6 columns (presolve time = 295s) ...
2025-03-05 22:27:43,434 - INFO - Presolve removed 849 rows and 6 columns (presolve time = 300s) ...
2025-03-05 22:27:48,468 - INFO - Presolve removed 849 rows and 6 columns (presolve time = 305s) ...
2025-03-05 22:27:53,443 - INFO - Presolve removed 849 rows and 6 columns (presolve time = 310s) ...
2025-03-05 22:27:58,473 - INFO - Presolve removed 849 rows and 6 columns (presolve time = 315s) ...
2025-03-05 22:28:03,454 - INFO - Presolve removed 849 rows and 6 columns (presolve time = 320s) ...
2025-03-05 22:28:08,431 - INFO - Presolve removed 849 rows and 6 columns (presolve time = 325s) ...
2025-03-05 22:28:13,438 - INFO - Presolve removed 849 rows and 6 columns (presolve time = 330s) ...
2025-03-05 22:28:18,448 - INFO - Presolve removed 849 rows and 6 columns (presolve time = 335s) ...
2025-03-05 22:28:23,449 - INFO - Presolve removed 849 rows and 6 columns (presolve time = 340s) ...
2025-03-05 22:28:28,430 - INFO - Presolve removed 849 rows and 6 columns (presolve time = 345s) ...
2025-03-05 22:28:33,440 - INFO - Presolve removed 849 rows and 6 columns (presolve time = 350s) ...
2025-03-05 22:28:38,456 - INFO - Presolve removed 849 rows and 6 columns (presolve time = 355s) ...
2025-03-05 22:28:43,477 - INFO - Presolve removed 849 rows and 6 columns (presolve time = 360s) ...
2025-03-05 22:28:48,457 - INFO - Presolve removed 849 rows and 6 columns (presolve time = 365s) ...
2025-03-05 22:28:53,458 - INFO - Presolve removed 849 rows and 6 columns (presolve time = 370s) ...
2025-03-05 22:28:58,428 - INFO - Presolve removed 849 rows and 6 columns (presolve time = 375s) ...
2025-03-05 22:29:03,450 - INFO - Presolve removed 849 rows and 6 columns (presolve time = 380s) ...
2025-03-05 22:29:08,465 - INFO - Presolve removed 849 rows and 6 columns (presolve time = 385s) ...
2025-03-05 22:29:13,434 - INFO - Presolve removed 849 rows and 6 columns (presolve time = 390s) ...
2025-03-05 22:29:18,430 - INFO - Presolve removed 849 rows and 6 columns (presolve time = 395s) ...
2025-03-05 22:29:23,449 - INFO - Presolve removed 849 rows and 6 columns (presolve time = 400s) ...
2025-03-05 22:29:28,477 - INFO - Presolve removed 849 rows and 6 columns (presolve time = 405s) ...
2025-03-05 22:29:33,430 - INFO - Presolve removed 849 rows and 6 columns (presolve time = 410s) ...
2025-03-05 22:29:38,449 - INFO - Presolve removed 849 rows and 6 columns (presolve time = 415s) ...
2025-03-05 22:29:43,442 - INFO - Presolve removed 849 rows and 6 columns (presolve time = 420s) ...
2025-03-05 22:29:48,455 - INFO - Presolve removed 849 rows and 6 columns (presolve time = 425s) ...
2025-03-05 22:29:53,448 - INFO - Presolve removed 849 rows and 6 columns (presolve time = 430s) ...
2025-03-05 22:29:58,458 - INFO - Presolve removed 849 rows and 6 columns (presolve time = 435s) ...
2025-03-05 22:30:03,443 - INFO - Presolve removed 849 rows and 6 columns (presolve time = 440s) ...
2025-03-05 22:30:08,433 - INFO - Presolve removed 849 rows and 6 columns (presolve time = 445s) ...
2025-03-05 22:30:13,436 - INFO - Presolve removed 849 rows and 6 columns (presolve time = 450s) ...
2025-03-05 22:30:18,427 - INFO - Presolve removed 849 rows and 6 columns (presolve time = 455s) ...
2025-03-05 22:30:23,464 - INFO - Presolve removed 849 rows and 6 columns (presolve time = 460s) ...
2025-03-05 22:30:28,462 - INFO - Presolve removed 849 rows and 6 columns (presolve time = 465s) ...
2025-03-05 22:30:33,469 - INFO - Presolve removed 849 rows and 6 columns (presolve time = 470s) ...
2025-03-05 22:30:38,456 - INFO - Presolve removed 849 rows and 6 columns (presolve time = 475s) ...
2025-03-05 22:30:43,452 - INFO - Presolve removed 849 rows and 6 columns (presolve time = 480s) ...
2025-03-05 22:30:48,437 - INFO - Presolve removed 849 rows and 6 columns (presolve time = 485s) ...
2025-03-05 22:30:53,456 - INFO - Presolve removed 849 rows and 6 columns (presolve time = 490s) ...
2025-03-05 22:30:58,435 - INFO - Presolve removed 849 rows and 6 columns (presolve time = 495s) ...
2025-03-05 22:31:03,478 - INFO - Presolve removed 849 rows and 6 columns (presolve time = 500s) ...
2025-03-05 22:31:08,460 - INFO - Presolve removed 849 rows and 6 columns (presolve time = 505s) ...
2025-03-05 22:31:13,471 - INFO - Presolve removed 849 rows and 6 columns (presolve time = 510s) ...
2025-03-05 22:31:18,458 - INFO - Presolve removed 849 rows and 6 columns (presolve time = 515s) ...
2025-03-05 22:31:23,465 - INFO - Presolve removed 849 rows and 6 columns (presolve time = 520s) ...
2025-03-05 22:31:28,459 - INFO - Presolve removed 849 rows and 6 columns (presolve time = 525s) ...
2025-03-05 22:31:33,454 - INFO - Presolve removed 849 rows and 6 columns (presolve time = 530s) ...
2025-03-05 22:31:38,442 - INFO - Presolve removed 849 rows and 6 columns (presolve time = 535s) ...
2025-03-05 22:31:43,431 - INFO - Presolve removed 849 rows and 6 columns (presolve time = 540s) ...
2025-03-05 22:31:48,434 - INFO - Presolve removed 849 rows and 6 columns (presolve time = 545s) ...
2025-03-05 22:31:53,427 - INFO - Presolve removed 849 rows and 6 columns (presolve time = 550s) ...
2025-03-05 22:31:58,433 - INFO - Presolve removed 849 rows and 6 columns (presolve time = 555s) ...
2025-03-05 22:32:03,478 - INFO - Presolve removed 849 rows and 6 columns (presolve time = 560s) ...
2025-03-05 22:32:08,434 - INFO - Presolve removed 849 rows and 6 columns (presolve time = 565s) ...
2025-03-05 22:32:13,479 - INFO - Presolve removed 849 rows and 6 columns (presolve time = 570s) ...
2025-03-05 22:32:18,470 - INFO - Presolve removed 849 rows and 6 columns (presolve time = 575s) ...
2025-03-05 22:32:23,427 - INFO - Presolve removed 849 rows and 6 columns (presolve time = 580s) ...
2025-03-05 22:32:28,449 - INFO - Presolve removed 849 rows and 6 columns (presolve time = 585s) ...
2025-03-05 22:32:33,458 - INFO - Presolve removed 849 rows and 6 columns (presolve time = 590s) ...
2025-03-05 22:32:38,445 - INFO - Presolve removed 849 rows and 6 columns (presolve time = 595s) ...
2025-03-05 22:32:43,442 - INFO - Presolve removed 849 rows and 6 columns (presolve time = 600s) ...
2025-03-05 22:32:48,445 - INFO - Presolve removed 849 rows and 6 columns (presolve time = 605s) ...
2025-03-05 22:32:53,441 - INFO - Presolve removed 849 rows and 6 columns (presolve time = 610s) ...
2025-03-05 22:32:58,445 - INFO - Presolve removed 849 rows and 6 columns (presolve time = 615s) ...
2025-03-05 22:33:03,435 - INFO - Presolve removed 849 rows and 6 columns (presolve time = 620s) ...
2025-03-05 22:33:08,449 - INFO - Presolve removed 849 rows and 6 columns (presolve time = 625s) ...
2025-03-05 22:33:13,449 - INFO - Presolve removed 849 rows and 6 columns (presolve time = 630s) ...
2025-03-05 22:33:18,445 - INFO - Presolve removed 849 rows and 6 columns (presolve time = 635s) ...
2025-03-05 22:33:23,434 - INFO - Presolve removed 849 rows and 6 columns (presolve time = 640s) ...
2025-03-05 22:33:28,452 - INFO - Presolve removed 849 rows and 6 columns (presolve time = 645s) ...
2025-03-05 22:33:33,450 - INFO - Presolve removed 849 rows and 6 columns (presolve time = 650s) ...
2025-03-05 22:33:38,457 - INFO - Presolve removed 849 rows and 6 columns (presolve time = 655s) ...
2025-03-05 22:33:43,456 - INFO - Presolve removed 849 rows and 6 columns (presolve time = 660s) ...
2025-03-05 22:33:48,458 - INFO - Presolve removed 849 rows and 6 columns (presolve time = 665s) ...
2025-03-05 22:33:53,461 - INFO - Presolve removed 849 rows and 6 columns (presolve time = 670s) ...
2025-03-05 22:33:58,431 - INFO - Presolve removed 849 rows and 6 columns (presolve time = 675s) ...
2025-03-05 22:34:03,453 - INFO - Presolve removed 849 rows and 6 columns (presolve time = 680s) ...
2025-03-05 22:34:08,439 - INFO - Presolve removed 849 rows and 6 columns (presolve time = 685s) ...
2025-03-05 22:34:13,435 - INFO - Presolve removed 849 rows and 6 columns (presolve time = 690s) ...
2025-03-05 22:34:18,442 - INFO - Presolve removed 849 rows and 6 columns (presolve time = 695s) ...
2025-03-05 22:34:23,443 - INFO - Presolve removed 849 rows and 6 columns (presolve time = 700s) ...
2025-03-05 22:34:28,433 - INFO - Presolve removed 849 rows and 6 columns (presolve time = 705s) ...
2025-03-05 22:34:33,433 - INFO - Presolve removed 849 rows and 6 columns (presolve time = 710s) ...
2025-03-05 22:34:38,477 - INFO - Presolve removed 849 rows and 6 columns (presolve time = 715s) ...
2025-03-05 22:34:43,451 - INFO - Presolve removed 849 rows and 6 columns (presolve time = 720s) ...
2025-03-05 22:34:48,434 - INFO - Presolve removed 849 rows and 6 columns (presolve time = 725s) ...
2025-03-05 22:34:53,476 - INFO - Presolve removed 849 rows and 6 columns (presolve time = 730s) ...
2025-03-05 22:34:58,452 - INFO - Presolve removed 849 rows and 6 columns (presolve time = 735s) ...
2025-03-05 22:35:03,469 - INFO - Presolve removed 849 rows and 6 columns (presolve time = 740s) ...
2025-03-05 22:35:08,465 - INFO - Presolve removed 849 rows and 6 columns (presolve time = 745s) ...
2025-03-05 22:35:13,465 - INFO - Presolve removed 849 rows and 6 columns (presolve time = 750s) ...
2025-03-05 22:35:18,464 - INFO - Presolve removed 849 rows and 6 columns (presolve time = 755s) ...
2025-03-05 22:35:23,464 - INFO - Presolve removed 849 rows and 6 columns (presolve time = 760s) ...
2025-03-05 22:35:28,432 - INFO - Presolve removed 849 rows and 6 columns (presolve time = 765s) ...
2025-03-05 22:35:33,470 - INFO - Presolve removed 849 rows and 6 columns (presolve time = 770s) ...
2025-03-05 22:35:38,466 - INFO - Presolve removed 849 rows and 6 columns (presolve time = 775s) ...
2025-03-05 22:35:43,471 - INFO - Presolve removed 849 rows and 6 columns (presolve time = 780s) ...
2025-03-05 22:35:48,456 - INFO - Presolve removed 849 rows and 6 columns (presolve time = 785s) ...
2025-03-05 22:35:53,449 - INFO - Presolve removed 849 rows and 6 columns (presolve time = 790s) ...
2025-03-05 22:35:58,436 - INFO - Presolve removed 849 rows and 6 columns (presolve time = 795s) ...
2025-03-05 22:36:03,445 - INFO - Presolve removed 849 rows and 6 columns (presolve time = 800s) ...
2025-03-05 22:36:08,450 - INFO - Presolve removed 849 rows and 6 columns (presolve time = 805s) ...
2025-03-05 22:36:13,489 - INFO - Presolve removed 849 rows and 6 columns (presolve time = 810s) ...
2025-03-05 22:36:18,492 - INFO - Presolve removed 849 rows and 6 columns (presolve time = 815s) ...
2025-03-05 22:36:23,506 - INFO - Presolve removed 849 rows and 6 columns (presolve time = 820s) ...
2025-03-05 22:36:28,432 - INFO - Presolve removed 849 rows and 6 columns (presolve time = 825s) ...
2025-03-05 22:36:33,482 - INFO - Presolve removed 849 rows and 6 columns (presolve time = 830s) ...
2025-03-05 22:36:38,492 - INFO - Presolve removed 849 rows and 6 columns (presolve time = 835s) ...
2025-03-05 22:36:43,497 - INFO - Presolve removed 849 rows and 6 columns (presolve time = 840s) ...
2025-03-05 22:36:48,505 - INFO - Presolve removed 849 rows and 6 columns (presolve time = 845s) ...
2025-03-05 22:36:53,505 - INFO - Presolve removed 849 rows and 6 columns (presolve time = 850s) ...
2025-03-05 22:36:58,515 - INFO - Presolve removed 849 rows and 6 columns (presolve time = 855s) ...
2025-03-05 22:37:03,512 - INFO - Presolve removed 849 rows and 6 columns (presolve time = 860s) ...
2025-03-05 22:37:08,525 - INFO - Presolve removed 849 rows and 6 columns (presolve time = 865s) ...
2025-03-05 22:37:13,520 - INFO - Presolve removed 849 rows and 6 columns (presolve time = 870s) ...
2025-03-05 22:37:18,522 - INFO - Presolve removed 849 rows and 6 columns (presolve time = 875s) ...
2025-03-05 22:37:23,519 - INFO - Presolve removed 849 rows and 6 columns (presolve time = 880s) ...
2025-03-05 22:37:28,501 - INFO - Presolve removed 849 rows and 6 columns (presolve time = 885s) ...
2025-03-05 22:37:33,509 - INFO - Presolve removed 849 rows and 6 columns (presolve time = 890s) ...
2025-03-05 22:37:38,506 - INFO - Presolve removed 849 rows and 6 columns (presolve time = 895s) ...
2025-03-05 22:37:43,486 - INFO - Presolve removed 849 rows and 6 columns (presolve time = 900s) ...
2025-03-05 22:37:48,467 - INFO - Presolve removed 849 rows and 6 columns (presolve time = 905s) ...
2025-03-05 22:37:53,445 - INFO - Presolve removed 849 rows and 6 columns (presolve time = 910s) ...
2025-03-05 22:37:58,443 - INFO - Presolve removed 849 rows and 6 columns (presolve time = 915s) ...
2025-03-05 22:38:03,445 - INFO - Presolve removed 849 rows and 6 columns (presolve time = 920s) ...
2025-03-05 22:38:08,443 - INFO - Presolve removed 849 rows and 6 columns (presolve time = 925s) ...
2025-03-05 22:38:13,448 - INFO - Presolve removed 849 rows and 6 columns (presolve time = 930s) ...
2025-03-05 22:38:18,434 - INFO - Presolve removed 849 rows and 6 columns (presolve time = 935s) ...
2025-03-05 22:38:23,531 - INFO - Presolve removed 849 rows and 6 columns (presolve time = 940s) ...
2025-03-05 22:38:28,515 - INFO - Presolve removed 849 rows and 6 columns (presolve time = 945s) ...
2025-03-05 22:38:33,513 - INFO - Presolve removed 849 rows and 6 columns (presolve time = 950s) ...
2025-03-05 22:38:38,502 - INFO - Presolve removed 849 rows and 6 columns (presolve time = 955s) ...
2025-03-05 22:38:43,501 - INFO - Presolve removed 849 rows and 6 columns (presolve time = 960s) ...
2025-03-05 22:38:48,489 - INFO - Presolve removed 849 rows and 6 columns (presolve time = 965s) ...
2025-03-05 22:38:53,498 - INFO - Presolve removed 849 rows and 6 columns (presolve time = 970s) ...
2025-03-05 22:38:58,490 - INFO - Presolve removed 849 rows and 6 columns (presolve time = 975s) ...
2025-03-05 22:39:03,514 - INFO - Presolve removed 849 rows and 6 columns (presolve time = 980s) ...
2025-03-05 22:39:08,529 - INFO - Presolve removed 849 rows and 6 columns (presolve time = 985s) ...
2025-03-05 22:39:13,470 - INFO - Presolve removed 849 rows and 6 columns (presolve time = 990s) ...
2025-03-05 22:39:18,478 - INFO - Presolve removed 849 rows and 6 columns (presolve time = 995s) ...
2025-03-05 22:39:23,489 - INFO - Presolve removed 849 rows and 6 columns (presolve time = 1000s) ...
2025-03-05 22:39:28,507 - INFO - Presolve removed 849 rows and 6 columns (presolve time = 1005s) ...
2025-03-05 22:39:33,526 - INFO - Presolve removed 849 rows and 6 columns (presolve time = 1010s) ...
2025-03-05 22:39:38,435 - INFO - Presolve removed 849 rows and 6 columns (presolve time = 1015s) ...
2025-03-05 22:39:43,466 - INFO - Presolve removed 849 rows and 6 columns (presolve time = 1020s) ...
2025-03-05 22:39:48,479 - INFO - Presolve removed 849 rows and 6 columns (presolve time = 1025s) ...
2025-03-05 22:39:53,504 - INFO - Presolve removed 849 rows and 6 columns (presolve time = 1030s) ...
2025-03-05 22:39:58,526 - INFO - Presolve removed 849 rows and 6 columns (presolve time = 1035s) ...
2025-03-05 22:40:03,448 - INFO - Presolve removed 849 rows and 6 columns (presolve time = 1040s) ...
2025-03-05 22:40:08,469 - INFO - Presolve removed 849 rows and 6 columns (presolve time = 1045s) ...
2025-03-05 22:40:13,483 - INFO - Presolve removed 849 rows and 6 columns (presolve time = 1050s) ...
2025-03-05 22:40:18,490 - INFO - Presolve removed 849 rows and 6 columns (presolve time = 1055s) ...
2025-03-05 22:40:23,515 - INFO - Presolve removed 849 rows and 6 columns (presolve time = 1060s) ...
2025-03-05 22:40:28,432 - INFO - Presolve removed 849 rows and 6 columns (presolve time = 1065s) ...
2025-03-05 22:40:33,463 - INFO - Presolve removed 849 rows and 6 columns (presolve time = 1070s) ...
2025-03-05 22:40:38,498 - INFO - Presolve removed 849 rows and 6 columns (presolve time = 1075s) ...
2025-03-05 22:40:43,516 - INFO - Presolve removed 849 rows and 6 columns (presolve time = 1080s) ...
2025-03-05 22:40:48,432 - INFO - Presolve removed 849 rows and 6 columns (presolve time = 1085s) ...
2025-03-05 22:40:53,459 - INFO - Presolve removed 849 rows and 6 columns (presolve time = 1090s) ...
2025-03-05 22:40:58,486 - INFO - Presolve removed 849 rows and 6 columns (presolve time = 1095s) ...
2025-03-05 22:41:03,517 - INFO - Presolve removed 849 rows and 6 columns (presolve time = 1100s) ...
2025-03-05 22:41:08,533 - INFO - Presolve removed 849 rows and 6 columns (presolve time = 1105s) ...
2025-03-05 22:41:13,434 - INFO - Presolve removed 849 rows and 6 columns (presolve time = 1110s) ...
2025-03-05 22:41:18,452 - INFO - Presolve removed 849 rows and 6 columns (presolve time = 1115s) ...
2025-03-05 22:41:23,481 - INFO - Presolve removed 849 rows and 6 columns (presolve time = 1120s) ...
2025-03-05 22:41:28,504 - INFO - Presolve removed 849 rows and 6 columns (presolve time = 1125s) ...
2025-03-05 22:41:33,430 - INFO - Presolve removed 849 rows and 6 columns (presolve time = 1130s) ...
2025-03-05 22:41:38,461 - INFO - Presolve removed 849 rows and 6 columns (presolve time = 1135s) ...
2025-03-05 22:41:43,485 - INFO - Presolve removed 849 rows and 6 columns (presolve time = 1140s) ...
2025-03-05 22:41:48,509 - INFO - Presolve removed 849 rows and 6 columns (presolve time = 1145s) ...
2025-03-05 22:41:53,438 - INFO - Presolve removed 849 rows and 6 columns (presolve time = 1150s) ...
2025-03-05 22:41:58,468 - INFO - Presolve removed 849 rows and 6 columns (presolve time = 1155s) ...
2025-03-05 22:42:03,497 - INFO - Presolve removed 849 rows and 6 columns (presolve time = 1160s) ...
2025-03-05 22:42:08,510 - INFO - Presolve removed 849 rows and 6 columns (presolve time = 1165s) ...
2025-03-05 22:42:13,476 - INFO - Presolve removed 849 rows and 6 columns (presolve time = 1170s) ...
2025-03-05 22:42:18,501 - INFO - Presolve removed 849 rows and 6 columns (presolve time = 1175s) ...
2025-03-05 22:42:23,432 - INFO - Presolve removed 849 rows and 6 columns (presolve time = 1180s) ...
2025-03-05 22:42:28,431 - INFO - Presolve removed 849 rows and 6 columns (presolve time = 1185s) ...
2025-03-05 22:42:33,431 - INFO - Presolve removed 849 rows and 6 columns (presolve time = 1190s) ...
2025-03-05 22:42:38,427 - INFO - Presolve removed 849 rows and 6 columns (presolve time = 1195s) ...
2025-03-05 22:42:43,427 - INFO - Presolve removed 849 rows and 6 columns (presolve time = 1200s) ...
2025-03-05 22:42:48,434 - INFO - Presolve removed 849 rows and 6 columns (presolve time = 1205s) ...
2025-03-05 22:42:53,432 - INFO - Presolve removed 849 rows and 6 columns (presolve time = 1210s) ...
2025-03-05 22:42:58,430 - INFO - Presolve removed 849 rows and 6 columns (presolve time = 1215s) ...
2025-03-05 22:43:03,429 - INFO - Presolve removed 849 rows and 6 columns (presolve time = 1220s) ...
2025-03-05 22:43:08,433 - INFO - Presolve removed 849 rows and 6 columns (presolve time = 1225s) ...
2025-03-05 22:43:13,427 - INFO - Presolve removed 849 rows and 6 columns (presolve time = 1230s) ...
2025-03-05 22:43:18,431 - INFO - Presolve removed 849 rows and 6 columns (presolve time = 1235s) ...
2025-03-05 22:43:23,431 - INFO - Presolve removed 849 rows and 6 columns (presolve time = 1240s) ...
2025-03-05 22:43:28,427 - INFO - Presolve removed 849 rows and 6 columns (presolve time = 1245s) ...
2025-03-05 22:43:33,427 - INFO - Presolve removed 849 rows and 6 columns (presolve time = 1250s) ...
2025-03-05 22:43:38,432 - INFO - Presolve removed 849 rows and 6 columns (presolve time = 1255s) ...
2025-03-05 22:43:43,430 - INFO - Presolve removed 849 rows and 6 columns (presolve time = 1260s) ...
2025-03-05 22:43:48,432 - INFO - Presolve removed 849 rows and 6 columns (presolve time = 1265s) ...
2025-03-05 22:43:53,432 - INFO - Presolve removed 849 rows and 6 columns (presolve time = 1270s) ...
2025-03-05 22:43:58,432 - INFO - Presolve removed 849 rows and 6 columns (presolve time = 1275s) ...
2025-03-05 22:44:03,429 - INFO - Presolve removed 849 rows and 6 columns (presolve time = 1280s) ...
2025-03-05 22:44:08,431 - INFO - Presolve removed 849 rows and 6 columns (presolve time = 1285s) ...
2025-03-05 22:44:13,430 - INFO - Presolve removed 849 rows and 6 columns (presolve time = 1290s) ...
2025-03-05 22:44:18,433 - INFO - Presolve removed 849 rows and 6 columns (presolve time = 1295s) ...
2025-03-05 22:44:23,433 - INFO - Presolve removed 849 rows and 6 columns (presolve time = 1300s) ...
2025-03-05 22:44:28,427 - INFO - Presolve removed 849 rows and 6 columns (presolve time = 1305s) ...
2025-03-05 22:44:33,431 - INFO - Presolve removed 849 rows and 6 columns (presolve time = 1310s) ...
2025-03-05 22:44:38,430 - INFO - Presolve removed 849 rows and 6 columns (presolve time = 1315s) ...
2025-03-05 22:44:43,431 - INFO - Presolve removed 849 rows and 6 columns (presolve time = 1320s) ...
2025-03-05 22:44:48,433 - INFO - Presolve removed 849 rows and 6 columns (presolve time = 1325s) ...
2025-03-05 22:44:53,434 - INFO - Presolve removed 849 rows and 6 columns (presolve time = 1330s) ...
2025-03-05 22:44:58,430 - INFO - Presolve removed 849 rows and 6 columns (presolve time = 1335s) ...
2025-03-05 22:45:04,186 - INFO - Presolve removed 849 rows and 6 columns (presolve time = 1341s) ...
2025-03-05 22:45:08,428 - INFO - Presolve removed 849 rows and 6 columns (presolve time = 1345s) ...
2025-03-05 22:45:13,430 - INFO - Presolve removed 849 rows and 6 columns (presolve time = 1350s) ...
2025-03-05 22:45:18,434 - INFO - Presolve removed 849 rows and 6 columns (presolve time = 1355s) ...
2025-03-05 22:45:23,428 - INFO - Presolve removed 849 rows and 6 columns (presolve time = 1360s) ...
2025-03-05 22:45:28,430 - INFO - Presolve removed 849 rows and 6 columns (presolve time = 1365s) ...
2025-03-05 22:45:33,428 - INFO - Presolve removed 849 rows and 6 columns (presolve time = 1370s) ...
2025-03-05 22:45:39,677 - INFO - Presolve removed 849 rows and 6 columns (presolve time = 1376s) ...
2025-03-05 22:45:43,476 - INFO - Presolve removed 849 rows and 6 columns (presolve time = 1380s) ...
2025-03-05 22:45:48,478 - INFO - Presolve removed 849 rows and 6 columns (presolve time = 1385s) ...
2025-03-05 22:45:53,524 - INFO - Presolve removed 849 rows and 6 columns (presolve time = 1390s) ...
2025-03-05 22:45:58,533 - INFO - Presolve removed 849 rows and 6 columns (presolve time = 1395s) ...
2025-03-05 22:46:03,480 - INFO - Presolve removed 849 rows and 6 columns (presolve time = 1400s) ...
2025-03-05 22:46:09,303 - INFO - Presolve removed 849 rows and 6 columns (presolve time = 1406s) ...
2025-03-05 22:46:13,442 - INFO - Presolve removed 849 rows and 6 columns (presolve time = 1410s) ...
2025-03-05 23:33:38,451 - INFO - Presolve removed 849 rows and 6 columns (presolve time = 4255s) ...
2025-03-05 23:33:38,696 - INFO - Presolve removed 849 rows and 6 columns
2025-03-05 23:33:38,696 - INFO - Presolve time: 4255.27s
2025-03-05 23:33:38,837 - INFO - 
2025-03-05 23:33:38,837 - INFO - Explored 0 nodes (0 simplex iterations) in 4264.44 seconds (1272.73 work units)
2025-03-05 23:33:38,837 - INFO - Thread count was 1 (of 48 available processors)
2025-03-05 23:33:38,837 - INFO - 
2025-03-05 23:33:38,837 - INFO - Solution count 1: 7000 
2025-03-05 23:33:38,838 - INFO - 
2025-03-05 23:33:38,838 - INFO - Solve interrupted
2025-03-05 23:33:38,937 - INFO - Best objective 7.000000000000e+03, best bound -, gap -
2025-03-05 23:33:38,941 - ERROR - Optimization failed with status 11
2025-03-05 23:33:38,942 - INFO - Warning: environment still referenced so free is deferred (Continue to use WLS)
